projected/problems_b25_r0_d7_m100_s666/_DIMACS/b25_d7_r0_s666_001.cnf
p cnf 219 354 25
c p show 1 2 3 4 5 6 7 8 9 10 11 12 13 14 15 16 17 18 19 20 21 22 23 24 25
-189 24 0
-189 18 0
-190 -18 0
-190 -24 0
-191 190 189 0
-192 -13 -21 0
-193 192 0
-193 191 0
-194 -24 -15 0
-195 19 0
-195 23 0
-196 195 194 0
-197 196 193 0
-198 -4 18 0
-199 19 -1 0
-200 199 198 0
-201 1 -16 0
-202 -10 0
-202 8 0
-203 202 0
-203 201 0
-204 203 0
-204 200 0
-205 204 0
-205 197 0
-206 4 0
-206 -18 0
-207 -19 0
-207 1 0
-208 207 0
-208 206 0
-209 -1 0
-209 16 0
-210 10 -8 0
-211 210 209 0
-212 211 208 0
-213 -24 -18 0
-214 18 24 0
-215 214 0
-215 213 0
-216 13 0
-216 21 0
-217 216 215 0
-218 24 0
-218 15 0
-219 -19 -23 0
-26 219 0
-26 218 0
-27 26 0
-27 217 0
-28 27 0
-28 212 0
-29 28 205 0
-30 -20 -15 0
-31 -3 13 0
-32 31 30 0
-33 -15 0
-33 25 0
-34 -9 5 0
-35 34 33 0
-36 35 0
-36 32 0
-37 -21 0
-38 21 0
-39 38 37 0
-40 -6 -7 0
-41 40 0
-41 39 0
-42 23 0
-42 2 0
-43 -4 0
-43 17 0
-44 43 0
-44 42 0
-45 44 0
-45 41 0
-46 45 36 0
-47 46 29 0
-48 -5 0
-48 -19 0
-49 -24 0
-49 -16 0
-50 49 0
-50 48 0
-51 -25 0
-51 13 0
-52 -7 8 0
-53 52 0
-53 51 0
-54 53 0
-54 50 0
-55 -10 -2 0
-56 9 0
-56 -16 0
-57 56 0
-57 55 0
-58 2 0
-58 -20 0
-59 -4 0
-59 10 0
-60 -10 0
-60 4 0
-61 60 59 0
-62 61 58 0
-63 62 0
-63 57 0
-64 63 54 0
-65 22 2 0
-66 10 0
-66 3 0
-67 66 65 0
-68 -5 10 0
-69 -23 3 0
-70 69 0
-70 68 0
-71 70 0
-71 67 0
-72 21 -5 0
-73 -12 0
-73 2 0
-74 73 72 0
-75 17 13 0
-76 -13 -17 0
-77 76 0
-77 75 0
-78 18 0
-78 9 0
-79 78 0
-79 77 0
-80 79 74 0
-81 80 71 0
-82 -21 0
-82 5 0
-83 12 -2 0
-84 83 0
-84 82 0
-85 -17 0
-85 -13 0
-86 13 0
-86 17 0
-87 86 85 0
-88 -18 -9 0
-89 88 87 0
-90 89 0
-90 84 0
-91 -22 0
-91 -2 0
-92 -10 -3 0
-93 92 0
-93 91 0
-94 5 0
-94 -10 0
-95 23 0
-95 -3 0
-96 95 94 0
-97 96 93 0
-98 97 90 0
-99 98 0
-99 81 0
-100 99 0
-100 64 0
-101 100 47 0
-102 -19 0
-102 8 0
-103 9 -1 0
-104 103 0
-104 102 0
-105 -12 -23 0
-106 13 0
-106 19 0
-107 106 105 0
-108 107 104 0
-109 -8 0
-109 -24 0
-110 16 2 0
-111 110 109 0
-112 10 0
-112 -16 0
-113 22 0
-113 15 0
-114 -15 0
-114 -22 0
-115 114 113 0
-116 115 112 0
-117 -22 -15 0
-118 15 22 0
-119 118 0
-119 117 0
-120 -10 16 0
-121 120 119 0
-122 121 0
-122 116 0
-123 122 111 0
-124 123 108 0
-125 -25 -12 0
-126 14 0
-126 -24 0
-127 126 0
-127 125 0
-128 4 23 0
-129 -11 0
-129 4 0
-130 129 0
-130 128 0
-131 130 0
-131 127 0
-132 -11 23 0
-133 -1 16 0
-134 133 0
-134 132 0
-135 -14 0
-135 -3 0
-136 24 0
-136 12 0
-137 136 135 0
-138 137 0
-138 134 0
-139 14 3 0
-140 -24 -12 0
-141 140 0
-141 139 0
-142 11 0
-142 -23 0
-143 1 0
-143 -16 0
-144 143 142 0
-145 144 0
-145 141 0
-146 145 138 0
-147 146 0
-147 131 0
-148 147 124 0
-149 22 0
-149 23 0
-150 -11 -24 0
-151 150 0
-151 149 0
-152 15 -16 0
-153 -12 0
-153 -9 0
-154 9 0
-154 12 0
-155 154 153 0
-156 155 152 0
-157 156 0
-157 151 0
-158 3 -7 0
-159 7 -3 0
-160 159 0
-160 158 0
-161 20 -23 0
-162 161 0
-162 160 0
-163 6 0
-163 -9 0
-164 -7 0
-164 -12 0
-165 164 0
-165 163 0
-166 165 0
-166 162 0
-167 166 0
-167 157 0
-168 -25 0
-168 -23 0
-169 23 0
-169 25 0
-170 169 168 0
-171 18 -13 0
-172 171 170 0
-173 -2 12 0
-174 -6 0
-174 2 0
-175 -2 0
-175 6 0
-176 175 174 0
-177 176 0
-177 173 0
-178 177 0
-178 172 0
-179 10 2 0
-180 -14 0
-180 10 0
-181 180 179 0
-182 -8 0
-182 -9 0
-183 -4 0
-183 -5 0
-184 183 0
-184 182 0
-185 184 181 0
-186 185 178 0
-187 186 0
-187 167 0
-188 187 0
-188 148 0
188 0
101 0
-206 -198 0
-198 -206 0
-199 -207 0
-200 -208 0
-201 -209 0
-209 -201 0
-202 -210 0
-210 -202 0
-211 -203 0
-203 -211 0
-204 -212 0
-215 -191 0
-191 -215 0
-192 -216 0
-193 -217 0
-194 -218 0
-219 -195 0
-195 -219 0
-196 -26 0
-197 -27 0
-27 -197 0
-72 -82 0
-82 -72 0
-73 -83 0
-83 -73 0
-84 -74 0
-74 -84 0
-77 -87 0
-78 -88 0
-79 -89 0
-80 -90 0
-90 -80 0
-65 -91 0
-92 -66 0
-66 -92 0
-67 -93 0
-93 -67 0
-94 -68 0
-68 -94 0
-69 -95 0
-70 -96 0
-96 -70 0
-97 -71 0
-71 -97 0
-119 -115 0
-120 -112 0
-112 -120 0
-135 -139 0
-140 -136 0
-136 -140 0
-137 -141 0
-132 -142 0
-142 -132 0
-133 -143 0
-143 -133 0
-144 -134 0
