projected/problems_b25_r0_d7_m100_s666/b25_d7_r0_s666_001.smt2
(set-logic QF_UF)
(declare-fun A0 () Bool)
(declare-fun A1 () Bool)
(declare-fun A2 () Bool)
(declare-fun A3 () Bool)
(declare-fun A4 () Bool)
(declare-fun A5 () Bool)
(declare-fun A6 () Bool)
(declare-fun A7 () Bool)
(declare-fun A8 () Bool)
(declare-fun A9 () Bool)
(declare-fun A10 () Bool)
(declare-fun A11 () Bool)
(declare-fun A12 () Bool)
(declare-fun A13 () Bool)
(declare-fun A14 () Bool)
(declare-fun A15 () Bool)
(declare-fun A16 () Bool)
(declare-fun A17 () Bool)
(declare-fun A18 () Bool)
(declare-fun A19 () Bool)
(declare-fun A20 () Bool)
(declare-fun A21 () Bool)
(declare-fun A22 () Bool)
(declare-fun A23 () Bool)
(declare-fun A24 () Bool)
(assert (let ((.def_0 (not A17))) (let ((.def_1 (and A3 .def_0))) (let ((.def_2 (not .def_1))) (let ((.def_3 (not A0))) (let ((.def_4 (or A18 .def_3))) (let ((.def_5 (or .def_4 .def_2))) (let ((.def_6 (not A15))) (let ((.def_7 (or A0 .def_6))) (let ((.def_8 (not .def_7))) (let ((.def_9 (not A9))) (let ((.def_10 (and .def_9 A7))) (let ((.def_11 (not .def_10))) (let ((.def_12 (or .def_11 .def_8))) (let ((.def_13 (not .def_12))) (let ((.def_14 (and .def_13 .def_5))) (let ((.def_15 (= .def_0 A23))) (let ((.def_16 (not .def_15))) (let ((.def_17 (not A20))) (let ((.def_18 (not A12))) (let ((.def_19 (or .def_18 .def_17))) (let ((.def_20 (and .def_19 .def_16))) (let ((.def_21 (not A14))) (let ((.def_22 (not A23))) (let ((.def_23 (or .def_22 .def_21))) (let ((.def_24 (not A22))) (let ((.def_25 (not A18))) (let ((.def_26 (or .def_25 .def_24))) (let ((.def_27 (not .def_26))) (let ((.def_28 (or .def_27 .def_23))) (let ((.def_29 (or .def_28 .def_20))) (let ((.def_30 (not .def_29))) (let ((.def_31 (= .def_30 .def_14))) (let ((.def_32 (not A19))) (let ((.def_33 (or .def_32 .def_21))) (let ((.def_34 (not .def_33))) (let ((.def_35 (not A2))) (let ((.def_36 (or .def_35 A12))) (let ((.def_37 (not .def_36))) (let ((.def_38 (and .def_37 .def_34))) (let ((.def_39 (not .def_38))) (let ((.def_40 (not A24))) (let ((.def_41 (or A14 .def_40))) (let ((.def_42 (not .def_41))) (let ((.def_43 (not A4))) (let ((.def_44 (and A8 .def_43))) (let ((.def_45 (not .def_44))) (let ((.def_46 (or .def_45 .def_42))) (let ((.def_47 (and .def_46 .def_39))) (let ((.def_48 (= A20 .def_17))) (let ((.def_49 (and A5 A6))) (let ((.def_50 (or .def_49 .def_48))) (let ((.def_51 (and A22 A1))) (let ((.def_52 (not .def_51))) (let ((.def_53 (not A16))) (let ((.def_54 (or A3 .def_53))) (let ((.def_55 (or .def_54 .def_52))) (let ((.def_56 (or .def_55 .def_50))) (let ((.def_57 (not .def_56))) (let ((.def_58 (or .def_57 .def_47))) (let ((.def_59 (not .def_58))) (let ((.def_60 (and .def_59 .def_31))) (let ((.def_61 (or A4 A18))) (let ((.def_62 (or A23 A15))) (let ((.def_63 (or .def_62 .def_61))) (let ((.def_64 (not .def_63))) (let ((.def_65 (or A24 .def_18))) (let ((.def_66 (not A6))) (let ((.def_67 (or .def_66 A7))) (let ((.def_68 (not .def_67))) (let ((.def_69 (or .def_68 .def_65))) (let ((.def_70 (not .def_69))) (let ((.def_71 (and .def_70 .def_64))) (let ((.def_72 (not .def_71))) (let ((.def_73 (and A9 A1))) (let ((.def_74 (not .def_73))) (let ((.def_75 (and A8 .def_6))) (let ((.def_76 (and .def_75 .def_74))) (let ((.def_77 (not A1))) (let ((.def_78 (or .def_77 A19))) (let ((.def_79 (not .def_78))) (let ((.def_80 (not A3))) (let ((.def_81 (= .def_9 .def_80))) (let ((.def_82 (not .def_81))) (let ((.def_83 (or .def_82 .def_79))) (let ((.def_84 (and .def_83 .def_76))) (let ((.def_85 (not .def_84))) (let ((.def_86 (and .def_85 .def_72))) (let ((.def_87 (not .def_86))) (let ((.def_88 (or A20 .def_43))) (let ((.def_89 (not .def_88))) (let ((.def_90 (not A11))) (let ((.def_91 (and .def_90 A1))) (let ((.def_92 (not .def_91))) (let ((.def_93 (and .def_92 .def_89))) (let ((.def_94 (not .def_93))) (let ((.def_95 (= A12 .def_53))) (let ((.def_96 (and A17 A8))) (let ((.def_97 (and .def_96 .def_95))) (let ((.def_98 (or .def_97 .def_94))) (let ((.def_99 (not .def_98))) (let ((.def_100 (or A21 A1))) (let ((.def_101 (or .def_9 .def_35))) (let ((.def_102 (not .def_101))) (let ((.def_103 (or .def_102 .def_100))) (let ((.def_104 (not .def_103))) (let ((.def_105 (and A4 .def_9))) (let ((.def_106 (not .def_105))) (let ((.def_107 (or .def_24 A2))) (let ((.def_108 (and .def_107 .def_106))) (let ((.def_109 (not .def_108))) (let ((.def_110 (or .def_109 .def_104))) (let ((.def_111 (not .def_110))) (let ((.def_112 (= .def_111 .def_99))) (let ((.def_113 (and .def_112 .def_87))) (let ((.def_114 (not .def_113))) (let ((.def_115 (and .def_114 .def_60))) (let ((.def_116 (and .def_25 A7))) (let ((.def_117 (not A8))) (let ((.def_118 (and .def_117 A0))) (let ((.def_119 (not .def_118))) (let ((.def_120 (and .def_119 .def_116))) (let ((.def_121 (not .def_120))) (let ((.def_122 (and A11 A22))) (let ((.def_123 (and A12 A18))) (let ((.def_124 (not .def_123))) (let ((.def_125 (and .def_124 .def_122))) (let ((.def_126 (and .def_125 .def_121))) (let ((.def_127 (not .def_126))) (let ((.def_128 (or A7 A23))) (let ((.def_129 (and .def_6 .def_77))) (let ((.def_130 (and .def_129 .def_128))) (let ((.def_131 (not .def_130))) (let ((.def_132 (= .def_21 A21))) (let ((.def_133 (or .def_9 A15))) (let ((.def_134 (not .def_133))) (let ((.def_135 (= .def_134 .def_132))) (let ((.def_136 (or .def_135 .def_131))) (let ((.def_137 (or .def_136 .def_127))) (let ((.def_138 (not .def_137))) (let ((.def_139 (and A24 A11))) (let ((.def_140 (not .def_139))) (let ((.def_141 (not A13))) (let ((.def_142 (or .def_141 A23))) (let ((.def_143 (not .def_142))) (let ((.def_144 (and .def_143 .def_140))) (let ((.def_145 (not .def_144))) (let ((.def_146 (and .def_80 .def_24))) (let ((.def_147 (not A10))) (let ((.def_148 (and .def_147 A3))) (let ((.def_149 (not .def_148))) (let ((.def_150 (or .def_149 .def_146))) (let ((.def_151 (or .def_150 .def_145))) (let ((.def_152 (and .def_141 .def_35))) (let ((.def_153 (or .def_22 .def_90))) (let ((.def_154 (not .def_153))) (let ((.def_155 (or .def_154 .def_152))) (let ((.def_156 (or .def_147 A22))) (let ((.def_157 (not .def_156))) (let ((.def_158 (or .def_3 A15))) (let ((.def_159 (not .def_158))) (let ((.def_160 (or .def_159 .def_157))) (let ((.def_161 (= .def_160 .def_155))) (let ((.def_162 (or .def_161 .def_151))) (let ((.def_163 (and .def_162 .def_138))) (let ((.def_164 (not .def_163))) (let ((.def_165 (and A21 A22))) (let ((.def_166 (and A10 A23))) (let ((.def_167 (not .def_166))) (let ((.def_168 (and .def_167 .def_165))) (let ((.def_169 (not .def_168))) (let ((.def_170 (or A14 .def_6))) (let ((.def_171 (= A8 .def_90))) (let ((.def_172 (not .def_171))) (let ((.def_173 (or .def_172 .def_170))) (let ((.def_174 (not .def_173))) (let ((.def_175 (or .def_174 .def_169))) (let ((.def_176 (= .def_66 .def_35))) (let ((.def_177 (not .def_176))) (let ((.def_178 (or A19 .def_24))) (let ((.def_179 (not .def_178))) (let ((.def_180 (or .def_179 .def_177))) (let ((.def_181 (not .def_180))) (let ((.def_182 (and A5 .def_117))) (let ((.def_183 (not .def_182))) (let ((.def_184 (or A6 A11))) (let ((.def_185 (or .def_184 .def_183))) (let ((.def_186 (not .def_185))) (let ((.def_187 (and .def_186 .def_181))) (let ((.def_188 (not .def_187))) (let ((.def_189 (or .def_188 .def_175))) (let ((.def_190 (= A22 .def_40))) (let ((.def_191 (and .def_0 A12))) (let ((.def_192 (and .def_191 .def_190))) (let ((.def_193 (not .def_192))) (let ((.def_194 (or .def_77 A11))) (let ((.def_195 (not A5))) (let ((.def_196 (= .def_77 .def_195))) (let ((.def_197 (not .def_196))) (let ((.def_198 (and .def_197 .def_194))) (let ((.def_199 (and .def_198 .def_193))) (let ((.def_200 (and .def_9 .def_77))) (let ((.def_201 (and .def_141 A9))) (let ((.def_202 (not .def_201))) (let ((.def_203 (and .def_202 .def_200))) (let ((.def_204 (not A7))) (let ((.def_205 (and .def_204 .def_117))) (let ((.def_206 (and .def_80 .def_43))) (let ((.def_207 (and .def_206 .def_205))) (let ((.def_208 (not .def_207))) (let ((.def_209 (and .def_208 .def_203))) (let ((.def_210 (not .def_209))) (let ((.def_211 (or .def_210 .def_199))) (let ((.def_212 (not .def_211))) (let ((.def_213 (or .def_212 .def_189))) (let ((.def_214 (not .def_213))) (let ((.def_215 (and .def_214 .def_164))) (let ((.def_216 (not .def_215))) (let ((.def_217 (or .def_216 .def_115))) (let ((.def_218 (not .def_217))) .def_218))))))))))))))))))))))))))))))))))))))))))))))))))))))))))))))))))))))))))))))))))))))))))))))))))))))))))))))))))))))))))))))))))))))))))))))))))))))))))))))))))))))))))))))))))))))))))))))))))))))))))))))))))))))))))))
(check-sat)
